Set parameter TokenServer to value "hpc-licenses.hpcc.usc.edu"
Set parameter TimeLimit to value 3600
Gurobi Optimizer version 9.5.1 build v9.5.1rc2 (linux64)
Thread count: 20 physical cores, 20 logical processors, using up to 20 threads
Optimize a model with 14014 rows, 10581 columns and 61098 nonzeros
Model fingerprint: 0x3b5cf27c
Variable types: 10514 continuous, 67 integer (67 binary)
Coefficient statistics:
  Matrix range     [1e+00, 1e+00]
  Objective range  [6e-05, 1e+00]
  Bounds range     [1e+00, 1e+00]
  RHS range        [1e+00, 1e+00]
Presolve removed 3091 rows and 3070 columns
Presolve time: 0.25s
Presolved: 10923 rows, 7511 columns, 56251 nonzeros
Variable types: 7451 continuous, 60 integer (60 binary)
Found heuristic solution: objective 228.3920131
Found heuristic solution: objective 233.7825983

Root relaxation: objective 2.389669e+02, 3471 iterations, 0.15 seconds (0.12 work units)

    Nodes    |    Current Node    |     Objective Bounds      |     Work
 Expl Unexpl |  Obj  Depth IntInf | Incumbent    BestBd   Gap | It/Node Time

     0     0  238.96687    0    6  233.78260  238.96687  2.22%     -    0s
H    0     0                     237.7959103  238.96687  0.49%     -    0s
     0     0  238.96366    0   11  237.79591  238.96366  0.49%     -    0s
     0     0  238.95972    0   12  237.79591  238.95972  0.49%     -    1s
     0     0  238.95972    0   12  237.79591  238.95972  0.49%     -    1s
     0     0  238.95823    0   13  237.79591  238.95823  0.49%     -    1s
     0     0  238.95823    0   14  237.79591  238.95823  0.49%     -    1s
     0     0  238.95257    0   20  237.79591  238.95257  0.49%     -    1s
     0     0  238.95103    0   20  237.79591  238.95103  0.49%     -    1s
     0     0  238.93738    0   20  237.79591  238.93738  0.48%     -    1s
H    0     0                     237.8820455  238.93738  0.44%     -    1s
     0     0  238.90870    0   18  237.88205  238.90870  0.43%     -    1s
     0     0  238.86170    0   19  237.88205  238.86170  0.41%     -    1s
     0     0  238.83670    0   19  237.88205  238.83670  0.40%     -    2s
     0     0  238.65214    0   19  237.88205  238.65214  0.32%     -    2s
     0     0  238.53057    0   21  237.88205  238.53057  0.27%     -    2s
     0     0  238.52091    0   22  237.88205  238.52091  0.27%     -    2s
     0     0  238.52091    0   19  237.88205  238.52091  0.27%     -    2s
     0     2  238.52091    0   19  237.88205  238.52091  0.27%     -    3s
    15     8  238.52091    5   14  237.88205  238.52091  0.27%   482    5s
*  138    26              12     237.9047870  238.52091  0.26%   219    8s
   188    15  238.11927   15    6  237.90479  238.33697  0.18%   192   10s

Cutting planes:
  Gomory: 2
  MIR: 63
  Flow cover: 7
  RLT: 15
  Relax-and-lift: 22

Explored 355 nodes (51345 simplex iterations) in 11.84 seconds (3.39 work units)
Thread count was 20 (of 20 available processors)

Solution count 5: 237.905 237.882 237.796 ... 228.392

Optimal solution found (tolerance 1.00e-04)
Best objective 2.379047870414e+02, best bound 2.379220374373e+02, gap 0.0073%



#########node  1
V2.2
#########node  2
V1.4
#########node  3
V1.3
#########node  4
0.0,1.0
#########node  5
1.0,0.0
#########node  6
0.0,1.0
#########node  7
1.0,0.0


Total Solving Time 12.86570143699646
obj value 237.90478704136302
Policy Regret train (Sum) 0.6341420813525427
Best Treatment Found train (%) 88.8
treatment classification acc train (%) 69.19999999999999
Policy Regret test (Sum) 13.99363959748604
Best Treatment Found test (%) 88.73
treatment classification acc test (%) 69.21000000000001
Set parameter TokenServer to value "hpc-licenses.hpcc.usc.edu"
Set parameter TimeLimit to value 3600
Gurobi Optimizer version 9.5.1 build v9.5.1rc2 (linux64)
Thread count: 20 physical cores, 20 logical processors, using up to 20 threads
Optimize a model with 14014 rows, 10581 columns and 61098 nonzeros
Model fingerprint: 0x3b5cf27c
Variable types: 10514 continuous, 67 integer (67 binary)
Coefficient statistics:
  Matrix range     [1e+00, 1e+00]
  Objective range  [6e-05, 1e+00]
  Bounds range     [1e+00, 1e+00]
  RHS range        [1e+00, 1e+00]
Presolve removed 3091 rows and 3070 columns
Presolve time: 0.23s
Presolved: 10923 rows, 7511 columns, 56251 nonzeros
Variable types: 7451 continuous, 60 integer (60 binary)
Found heuristic solution: objective 228.3920131
Found heuristic solution: objective 233.7825983

Root relaxation: objective 2.389669e+02, 3471 iterations, 0.14 seconds (0.12 work units)

    Nodes    |    Current Node    |     Objective Bounds      |     Work
 Expl Unexpl |  Obj  Depth IntInf | Incumbent    BestBd   Gap | It/Node Time

     0     0  238.96687    0    6  233.78260  238.96687  2.22%     -    0s
H    0     0                     237.7959103  238.96687  0.49%     -    0s
     0     0  238.96366    0   11  237.79591  238.96366  0.49%     -    0s
     0     0  238.95972    0   12  237.79591  238.95972  0.49%     -    0s
     0     0  238.95972    0   12  237.79591  238.95972  0.49%     -    1s
     0     0  238.95823    0   13  237.79591  238.95823  0.49%     -    1s
     0     0  238.95823    0   14  237.79591  238.95823  0.49%     -    1s
     0     0  238.95257    0   20  237.79591  238.95257  0.49%     -    1s
     0     0  238.95103    0   20  237.79591  238.95103  0.49%     -    1s
     0     0  238.93738    0   20  237.79591  238.93738  0.48%     -    1s
H    0     0                     237.8820455  238.93738  0.44%     -    1s
     0     0  238.90870    0   18  237.88205  238.90870  0.43%     -    1s
     0     0  238.86170    0   19  237.88205  238.86170  0.41%     -    1s
     0     0  238.83670    0   19  237.88205  238.83670  0.40%     -    2s
     0     0  238.65214    0   19  237.88205  238.65214  0.32%     -    2s
     0     0  238.53057    0   21  237.88205  238.53057  0.27%     -    2s
     0     0  238.52091    0   22  237.88205  238.52091  0.27%     -    2s
     0     0  238.52091    0   19  237.88205  238.52091  0.27%     -    2s
     0     2  238.52091    0   19  237.88205  238.52091  0.27%     -    3s
    29    14  238.52091    7   13  237.88205  238.52091  0.27%   444    5s
*  138    26              12     237.9047870  238.52091  0.26%   219    7s
   308     6  237.99606   18    2  237.90479  238.09642  0.08%   137   10s

Cutting planes:
  Gomory: 2
  MIR: 63
  Flow cover: 7
  RLT: 15
  Relax-and-lift: 22

Explored 355 nodes (51345 simplex iterations) in 10.55 seconds (3.39 work units)
Thread count was 20 (of 20 available processors)

Solution count 5: 237.905 237.882 237.796 ... 228.392

Optimal solution found (tolerance 1.00e-04)
Best objective 2.379047870414e+02, best bound 2.379220374373e+02, gap 0.0073%



#########node  1
V2.2
#########node  2
V1.4
#########node  3
V1.3
#########node  4
0.0,1.0
#########node  5
1.0,0.0
#########node  6
0.0,1.0
#########node  7
1.0,0.0


Total Solving Time 11.456651449203491
obj value 237.90478704136302
Policy Regret train (Sum) 0.6341420813525427
Best Treatment Found train (%) 88.8
treatment classification acc train (%) 69.19999999999999
Policy Regret test (Sum) 13.99363959748604
Best Treatment Found test (%) 88.73
treatment classification acc test (%) 69.21000000000001
